c SAT Generator for power-law distributed variable frequencies
c -g u -v 20 -c 91 -k 3 -p 2.750000 -b 3.200000 -f /home/schmidt/Devel/ni-kop-sat/data/ensemble/ruf20-91/ruf20-91-601 -u 1 -U 1 -s 3516993346
p cnf 20 91
-7 15 -17 0
9 10 -13 0
-1 12 -13 0
-3 -4 -12 0
-5 10 17 0
3 -14 -16 0
-10 11 14 0
4 16 -17 0
-4 8 -20 0
2 -6 -20 0
8 -10 20 0
-2 8 13 0
-2 9 13 0
7 16 18 0
-2 -11 12 0
1 -5 -15 0
-2 8 15 0
-5 18 19 0
-2 5 16 0
2 -7 14 0
-3 -12 -14 0
4 -9 -20 0
6 -11 -20 0
6 -8 20 0
-3 -5 -7 0
6 17 19 0
3 -15 20 0
1 -3 -7 0
-3 -4 13 0
-2 -14 18 0
2 -9 10 0
6 -8 -20 0
-4 7 -10 0
8 -15 -16 0
-8 -13 -19 0
-6 -14 18 0
5 -9 17 0
1 -12 15 0
10 14 -20 0
14 -18 19 0
1 10 -19 0
1 -17 20 0
-1 2 -20 0
8 -11 20 0
6 -10 20 0
-4 -7 15 0
3 -6 8 0
-1 -4 10 0
8 -12 20 0
-5 7 10 0
3 -8 19 0
8 13 -16 0
1 -5 20 0
6 13 -19 0
5 9 -16 0
1 -2 8 0
-1 -7 18 0
-10 14 17 0
-3 -13 -14 0
14 -16 -20 0
-10 12 -13 0
3 -13 -16 0
-7 -12 18 0
7 -12 -19 0
7 -15 -18 0
1 -7 10 0
-1 -7 8 0
15 -17 20 0
2 5 -18 0
3 -12 15 0
1 11 -12 0
3 -16 -20 0
-1 -13 -16 0
5 -11 15 0
-8 -16 -19 0
1 -3 -16 0
1 3 7 0
-5 9 -11 0
-12 15 -16 0
8 15 20 0
-3 -11 16 0
1 -5 7 0
2 6 8 0
1 2 -16 0
-4 -14 -15 0
9 13 20 0
5 15 19 0
-8 -12 -14 0
-7 15 19 0
7 -14 -16 0
6 -8 -12 0
